; benchmark generated from python API
(set-info :status unknown)
(declare-datatypes ((RealState 0)) (((RMk1 (rval1 Real)) (RMk2 (rval2 Real)))))
 (assert
 (forall ((|v17:0| Real) )(forall ((|v16:1| Real) )(forall ((|v15:2| Real) )(forall ((|v14:3| Real) )(forall ((|v13:4| Real) )(forall ((|v12:5| Real) )(exists ((|v11:6_st| RealState) (val!7110 Real) )(exists ((|v10:7_st| RealState) (val!7111 Real) )(exists ((|v9:8_st| RealState) (val!7112 Real) )(exists ((|v8:9_st| RealState) (val!7113 Real) )(exists ((|v7:10_st| RealState) (val!7114 Real) )(exists ((|v6:11_st| RealState) (val!7115 Real) )(forall ((|v5:12| Real) )(forall ((|v4:13| Real) )(forall ((|v3:14| Real) )(forall ((|v2:15| Real) )(forall ((|v1:16| Real) )(forall ((|v0:17| Real) )(let ((?x914 (- 14.0)))
 (let ((?x3426 (* 12.0 |v2:15|)))
 (let ((?x1650 (+ (+ (+ (* 3.0 |v15:2|) (* (- 11.0) |v12:5|)) (* (- 18.0) |v4:13|)) ?x3426)))
 (let ((?x1166 (* 12.0 |v3:14|)))
 (let ((?x2914 (+ (+ (+ (* 4.0 |v13:4|) (* (- 7.0) |v12:5|)) (* 13.0 |v16:1|)) ?x1166)))
 (let ((?x2782 (+ (+ (+ (* 5.0 (rval2 |v10:7_st|)) (* 17.0 |v1:16|)) (* 4.0 |v14:3|)) (* (- 19.0) (rval2 |v8:9_st|)))))
 (let ((?x3185 (- 10.0)))
 (let ((?x1892 (* 6.0 |v3:14|)))
 (let (($x3369 (<= (+ (+ (+ |v0:17| (* 20.0 |v14:3|)) (* (- 8.0) (rval2 |v11:6_st|))) ?x1892) ?x3185)))
 (let (($x1962 (and (or $x3369 (<= ?x2782 4.0)) (or (<= ?x2914 15.0) (<= ?x1650 ?x914)))))
 (let ((?x2035 (- 3.0)))
 (let ((?x2527 (+ (+ (+ (* 19.0 |v4:13|) (* ?x914 |v16:1|)) (* 3.0 |v13:4|)) (* (- 16.0) |v17:0|))))
 (let ((?x1364 (- 4.0)))
 (let ((?x1190 (* 20.0 |v5:12|)))
 (let ((?x1235 (+ (+ (+ (* 20.0 (rval2 |v9:8_st|)) (* 16.0 |v15:2|)) (* 15.0 |v12:5|)) ?x1190)))
 (let ((?x1675 (rval2 |v10:7_st|)))
 (let ((?x251 (+ (+ (+ (* ?x2035 (rval2 |v9:8_st|)) (* 4.0 ?x1675)) (* (- 5.0) |v15:2|)) ?x1675)))
 (let ((?x3396 (- 2.0)))
 (let ((?x1323 (+ (+ (+ (* (- 9.0) |v4:13|) (* 12.0 |v16:1|)) (* 0.0 |v14:3|)) (* 8.0 |v13:4|))))
 (let (($x357 (and (or (<= ?x1323 ?x3396) (<= ?x251 14.0)) (and (<= ?x1235 ?x1364) (<= ?x2527 ?x2035)))))
 (let ((?x1213 (- 17.0)))
 (let ((?x2501 (* ?x914 |v13:4|)))
 (let ((?x562 (+ (+ (+ (* ?x3185 |v0:17|) (* (- 7.0) (rval2 |v8:9_st|))) (* 19.0 |v5:12|)) ?x2501)))
 (let ((?x2056 (- 18.0)))
 (let ((?x1316 (* ?x2056 |v16:1|)))
 (let ((?x1741 (* 10.0 |v2:15|)))
 (let ((?x2802 (+ (+ (* 16.0 |v3:14|) (* (- 19.0) |v4:13|)) ?x1741)))
 (let ((?x1158 (rval2 |v9:8_st|)))
 (let ((?x1677 (* 20.0 ?x1158)))
 (let ((?x2205 (+ (+ (+ (* ?x3396 (rval2 |v7:10_st|)) (* ?x1213 |v1:16|)) (* 17.0 ?x1675)) ?x1677)))
 (let ((?x2167 (+ (+ (+ (* 14.0 |v12:5|) (* ?x1213 (rval2 |v7:10_st|))) (* ?x2056 |v17:0|)) (* 4.0 |v12:5|))))
 (let (($x1358 (and (or (<= ?x2167 8.0) (<= ?x2205 17.0)) (and (<= (+ ?x2802 ?x1316) 4.0) (<= ?x562 ?x1213)))))
 (let ((?x1680 (- 5.0)))
 (let ((?x1458 (* ?x1680 |v12:5|)))
 (let ((?x2923 (+ (+ (+ (* 18.0 |v13:4|) (* 13.0 |v2:15|)) (* 5.0 (rval2 |v6:11_st|))) ?x1458)))
 (let ((?x187 (* 11.0 |v5:12|)))
 (let ((?x3430 (+ (+ (* ?x2056 |v5:12|) (* ?x2035 |v2:15|)) ?x187)))
 (let ((?x1053 (- 19.0)))
 (let ((?x1641 (* ?x1053 |v0:17|)))
 (let ((?x3074 (+ (+ (+ (* ?x914 |v16:1|) (* (- 15.0) |v15:2|)) (* 10.0 (rval2 |v8:9_st|))) ?x1641)))
 (let (($x2266 (or (<= ?x3074 16.0) (and (<= (+ ?x3430 (* ?x1053 (rval2 |v6:11_st|))) ?x1213) (<= ?x2923 ?x1213)))))
 (let ((?x2283 (- 9.0)))
 (let ((?x215 (- 11.0)))
 (let ((?x3321 (* ?x215 |v12:5|)))
 (let ((?x124 (+ (+ (+ (* 2.0 |v13:4|) (* 17.0 |v13:4|)) (* ?x3396 (rval2 |v8:9_st|))) ?x3321)))
 (let ((?x320 (- 16.0)))
 (let ((?x108 (* ?x320 ?x1675)))
 (let ((?x2727 (rval2 |v11:6_st|)))
 (let ((?x1568 (* 10.0 ?x2727)))
 (let (($x2752 (<= (+ (+ (+ (* 12.0 (rval2 |v6:11_st|)) (* 20.0 |v0:17|)) ?x1568) ?x108) ?x320)))
 (let ((?x1148 (rval2 |v7:10_st|)))
 (let ((?x1194 (* 2.0 ?x1148)))
 (let ((?x2648 (+ (+ (+ (* 7.0 |v1:16|) (* (- 13.0) ?x1675)) (* 13.0 ?x1148)) ?x1194)))
 (let ((?x567 (+ (+ (+ (* 9.0 ?x2727) (* ?x1053 ?x1675)) (* (- 13.0) (rval2 |v6:11_st|))) (* ?x3185 |v12:5|))))
 (let ((?x1797 (* 4.0 |v14:3|)))
 (let ((?x8 (+ (+ (+ (* 0.0 |v4:13|) (* (- 15.0) |v4:13|)) (* 5.0 |v15:2|)) ?x1797)))
 (let ((?x3009 (rval2 |v8:9_st|)))
 (let ((?x2214 (* 6.0 ?x3009)))
 (let (($x359 (<= (+ (+ (+ (* ?x914 |v3:14|) (* (- 12.0) |v4:13|)) (* 3.0 |v14:3|)) ?x2214) ?x2056)))
 (let ((?x2970 (* 12.0 |v14:3|)))
 (let ((?x3318 (+ (+ (+ (* 0.0 ?x1148) (* ?x3396 (rval2 |v6:11_st|))) (* ?x1680 |v1:16|)) ?x2970)))
 (let ((?x2363 (- 1.0)))
 (let ((?x2459 (+ (+ (+ (* (- 15.0) |v13:4|) (* 13.0 |v5:12|)) (* 13.0 |v15:2|)) (* ?x2035 ?x2727))))
 (let (($x3383 (and (or (<= ?x2459 ?x2363) (<= ?x3318 8.0)) (and $x359 (<= ?x8 17.0)))))
 (let (($x1941 (and $x3383 (and (and (<= ?x567 ?x914) (<= ?x2648 ?x2056)) (and $x2752 (<= ?x124 ?x2283))))))
 (let ((?x2447 (- 12.0)))
 (let ((?x3274 (* ?x2447 |v0:17|)))
 (let (($x2654 (<= (+ (+ (+ (* ?x3185 ?x1158) (* ?x2056 ?x1148)) (* 13.0 |v17:0|)) ?x3274) ?x1364)))
 (let ((?x3399 (+ (+ (* ?x1213 |v2:15|) (* ?x1213 |v0:17|)) (* 13.0 |v3:14|))))
 (let ((?x2560 (* 7.0 ?x3009)))
 (let (($x67 (<= (+ (+ (+ (* ?x3396 |v2:15|) (* ?x3396 ?x2727)) (* 14.0 ?x2727)) ?x2560) ?x2056)))
 (let (($x545 (<= (+ (+ (+ (* 16.0 |v16:1|) ?x2501) (* 10.0 |v3:14|)) (* 8.0 ?x1148)) 14.0)))
 (let ((?x3098 (+ (+ (+ (* 3.0 |v16:1|) (* 7.0 |v0:17|)) (* 13.0 |v0:17|)) (* ?x2447 ?x1675))))
 (let (($x1113 (<= (+ (+ (+ (* ?x3396 |v16:1|) |v12:5|) (* 0.0 ?x1158)) (* ?x3185 |v0:17|)) ?x1053)))
 (let ((?x2383 (+ (+ (+ (* ?x2035 |v4:13|) (* ?x1364 ?x1148)) (* ?x3396 |v16:1|)) (* (- 7.0) |v16:1|))))
 (let ((?x1027 (* ?x2056 ?x2727)))
 (let (($x869 (<= (+ (+ (+ (* 14.0 ?x1158) (* ?x320 |v2:15|)) (* ?x3185 ?x2727)) ?x1027) 11.0)))
 (let (($x2251 (or (or (or $x869 (<= ?x2383 20.0)) (and $x1113 (<= ?x3098 ?x1213))) (or (and $x545 $x67) (or (<= (+ ?x3399 (* ?x2035 ?x3009)) 6.0) $x2654)))))
 (let ((?x2741 (* 14.0 ?x1148)))
 (let (($x1011 (<= (+ (+ (+ (* 5.0 |v1:16|) (* 0.0 |v1:16|)) (* ?x320 |v12:5|)) ?x2741) 13.0)))
 (let ((?x2255 (+ (+ (+ (* ?x1364 (rval2 |v6:11_st|)) (* 6.0 |v0:17|)) (* ?x914 |v12:5|)) (* ?x320 |v16:1|))))
 (let ((?x253 (+ (+ (+ (* ?x3396 ?x3009) (* 9.0 |v17:0|)) (* ?x2447 |v14:3|)) (* 6.0 |v12:5|))))
 (let (($x3358 (<= (+ (+ (+ (* ?x3185 |v3:14|) (* 0.0 |v12:5|)) (* 15.0 ?x1675)) ?x187) ?x1053)))
 (let ((?x1177 (* ?x2363 |v2:15|)))
 (let (($x2710 (<= (+ (+ (+ (* ?x1680 |v2:15|) (* ?x215 |v16:1|)) (* 9.0 ?x1148)) ?x1177) 8.0)))
 (let ((?x191 (* 14.0 ?x2727)))
 (let (($x840 (<= (+ (+ (+ (* 7.0 |v0:17|) (* 12.0 |v5:12|)) (* 19.0 ?x1158)) ?x191) ?x2056)))
 (let (($x2203 (<= (+ (+ (+ (* 8.0 |v12:5|) ?x1892) (* ?x1053 |v17:0|)) (* ?x2447 ?x1148)) 16.0)))
 (let ((?x1239 (- 7.0)))
 (let ((?x2922 (+ (+ (* 3.0 |v16:1|) (* 8.0 (rval2 |v6:11_st|))) (* ?x2035 (rval2 |v6:11_st|)))))
 (let (($x1276 (and (or (or (<= (+ ?x2922 (* 8.0 |v16:1|)) ?x1239) $x2203) (and $x840 $x2710)) (and (or $x3358 (<= ?x253 ?x1053)) (and (<= ?x2255 13.0) $x1011)))))
 (let ((?x2271 (* ?x1680 |v2:15|)))
 (let (($x2444 (<= (+ (+ (+ (* 14.0 |v13:4|) (* ?x1364 |v0:17|)) (* (- 13.0) |v14:3|)) ?x2271) 4.0)))
 (let (($x2870 (<= (+ (+ (+ (* 0.0 |v15:2|) (* ?x1239 ?x1158)) ?x1458) (* ?x3185 ?x1148)) 17.0)))
 (let ((?x639 (* ?x2056 |v4:13|)))
 (let (($x40 (<= (+ (+ (+ (* 19.0 |v5:12|) (* ?x2283 |v16:1|)) (* ?x2056 |v1:16|)) ?x639) ?x215)))
 (let (($x2645 (and $x40 (<= (+ (+ (+ ?x108 ?x1148) (* 13.0 (rval2 |v6:11_st|))) ?x1027) (- 6.0)))))
 (let ((?x725 (- 13.0)))
 (let ((?x208 (+ (+ (+ (* ?x1053 |v12:5|) (* ?x725 |v2:15|)) (* 0.0 |v0:17|)) (* 8.0 ?x2727))))
 (let (($x2656 (and (<= ?x208 ?x725) (<= (+ (+ (+ ?x1316 (* 6.0 |v17:0|)) (* 2.0 ?x1158)) |v2:15|) 2.0))))
 (let ((?x571 (- 8.0)))
 (let ((?x947 (* 13.0 ?x1158)))
 (let (($x824 (<= (+ (+ (+ (* ?x2447 |v5:12|) (* 5.0 ?x1148)) (* 18.0 ?x1675)) ?x947) ?x571)))
 (let (($x1376 (<= (+ (+ (+ (* ?x1364 |v5:12|) (* 10.0 |v17:0|)) ?x1316) (* (- 6.0) |v16:1|)) 4.0)))
 (let (($x3323 (and (and (and (and $x1376 $x824) $x2656) (or $x2645 (or $x2870 $x2444))) $x1276)))
 (let ((?x1636 (* ?x914 |v3:14|)))
 (let (($x2117 (<= (+ (+ (+ (* (- 6.0) ?x1158) (* ?x3185 |v3:14|)) (* 13.0 |v15:2|)) ?x1636) 4.0)))
 (let (($x387 (and (and $x2117 $x3323) (and (and $x2251 $x1941) (and (and $x2266 $x1358) (or $x357 $x1962))))))
 (let (($x785 (not (= |v6:11_st| (RMk1 val!7115)))))
 (let (($x1017 (not (= |v7:10_st| (RMk1 val!7114)))))
 (let (($x2912 (not (= |v8:9_st| (RMk1 val!7113)))))
 (let (($x2702 (not (= |v9:8_st| (RMk1 val!7112)))))
 (let (($x1978 (not (= |v10:7_st| (RMk1 val!7111)))))
 (let (($x891 (not (= |v11:6_st| (RMk1 val!7110)))))
 (and $x891 $x1978 $x2702 $x2912 $x1017 $x785 $x387))))))))))))))))))))))))))))))))))))))))))))))))))))))))))))))))))))))))))))))))))))))))))))))))))))))))))))))))))))
 )
 )
 )
 )
 )
 )
 )
 )
 )
 )
 )
 )
 )
 )
 )
 )
 )
 )
(check-sat)
